# Objective value = 3.1119095936467886e+02
x[0] 0
x[1] 1
x[2] 1
x[3] 0
x[4] 0
x[5] 1
x[6] 1
x[7] 0
x[8] 0
x[9] 1
x[10] 0
x[11] 1
x[12] 0
x[13] 1
x[14] 1
x[15] 1
x[16] 1
x[17] 0
x[18] 0
x[19] 1
x[20] 1
x[21] 1
x[22] 1
x[23] 1
x[24] 0
x[25] 1
x[26] 0
x[27] 0
x[28] 0
x[29] 1
x[30] 1
x[31] 0
x[32] 0
x[33] 0
x[34] 0
x[35] 0
x[36] 0
x[37] 1
x[38] 1
x[39] 0
x[40] 1
x[41] 0
x[42] 0
x[43] 1
x[44] 0
x[45] 0
x[46] 1
x[47] 0
x[48] 1
x[49] 1
x[50] 0
x[51] 1
x[52] 0
x[53] 1
x[54] 1
x[55] 1
x[56] 0
x[57] 1
x[58] 1
x[59] 0
x[60] 1
x[61] 0
x[62] 1
x[63] 1
x[64] 0
x[65] 1
x[66] 0
x[67] 1
x[68] 1
x[69] 1
x[70] 0
x[71] 0
x[72] 1
x[73] 0
x[74] 0
x[75] 0
x[76] 1
x[77] 0
x[78] 0
x[79] 0
x[80] 0
x[81] 1
x[82] 1
x[83] 0
x[84] 1
x[85] 1
x[86] 1
x[87] 1
x[88] 0
x[89] 0
x[90] 0
x[91] 1
x[92] 0
x[93] 1
x[94] 1
x[95] 0
x[96] 1
x[97] 1
x[98] 0
x[99] 0
x[100] 1
x[101] 0
x[102] 0
x[103] 0
x[104] 0
x[105] 0
x[106] 0
x[107] 1
x[108] 0
x[109] 1
x[110] 0
x[111] 1
x[112] 0
x[113] 0
x[114] 0
x[115] 1
x[116] 0
x[117] 0
x[118] 1
x[119] 0
x[120] 0
x[121] 0
x[122] 1
x[123] 0
x[124] 1
x[125] 1
x[126] 1
x[127] 1
x[128] 1
x[129] 0
x[130] 1
x[131] 1
x[132] 1
x[133] 0
x[134] 0
x[135] 1
x[136] 1
x[137] 0
x[138] 0
x[139] 0
x[140] 0
x[141] 1
x[142] 0
x[143] 0
x[144] 0
x[145] 0
x[146] 1
x[147] 1
x[148] 1
x[149] 1
x[150] 1
x[151] 0
x[152] 0
x[153] 0
x[154] 1
x[155] 0
x[156] 1
x[157] 1
x[158] 0
x[159] 0
x[160] 1
x[161] 0
x[162] 1
x[163] 0
x[164] 1
x[165] 0
x[166] 0
x[167] 1
x[168] 0
x[169] 1
x[170] 1
x[171] 1
x[172] 1
x[173] 0
x[174] 1
x[175] 1
x[176] 0
x[177] 1
x[178] 1
x[179] 0
x[180] 0
x[181] 1
x[182] 0
x[183] 1
x[184] 1
x[185] 0
x[186] 0
x[187] 0
x[188] 1
x[189] 0
x[190] 1
x[191] 1
x[192] 1
x[193] 0
x[194] 1
x[195] 1
x[196] 0
x[197] 1
x[198] 1
x[199] 0
x[200] 0
x[201] 0
x[202] 0
x[203] 1
x[204] 0
x[205] 1
x[206] 0
x[207] 1
x[208] 0
x[209] 1
x[210] 0
x[211] 1
x[212] 1
x[213] 1
x[214] 1
x[215] 0
x[216] 0
x[217] 0
x[218] 1
x[219] 0
x[220] 1
x[221] 0
x[222] 1
x[223] 0
x[224] 0
x[225] 1
x[226] 1
x[227] 1
x[228] 1
x[229] 1
x[230] 0
x[231] 1
x[232] 0
x[233] 0
x[234] 1
x[235] 1
x[236] 0
x[237] 0
x[238] 0
x[239] 0
x[240] 1
x[241] 1
x[242] 1
x[243] 0
x[244] 0
x[245] 0
x[246] 1
x[247] 0
x[248] 0
x[249] 1
x[250] 1
x[251] 0
x[252] 1
x[253] 1
x[254] 1
x[255] 1
x[256] 0
x[257] 0
x[258] 1
x[259] 1
x[260] 0
x[261] 0
x[262] 0
x[263] 0
x[264] 0
x[265] 0
x[266] 1
x[267] 1
x[268] 0
x[269] 0
x[270] 0
x[271] 1
x[272] 0
x[273] 1
x[274] 0
x[275] 1
x[276] 1
x[277] 1
x[278] 1
x[279] 0
x[280] 0
x[281] 0
x[282] 1
x[283] 1
x[284] 1
x[285] 0
x[286] 0
x[287] 0
x[288] 1
x[289] 1
x[290] 0
x[291] 0
x[292] 0
x[293] 0
x[294] 0
x[295] 0
x[296] 0
x[297] 1
x[298] 0
x[299] 1
x[300] 0
x[301] 0
x[302] 0
x[303] 1
x[304] 0
x[305] 1
x[306] 1
x[307] 1
x[308] 1
x[309] 0
x[310] 1
x[311] 0
x[312] 0
x[313] 0
x[314] 1
x[315] 1
x[316] 0
x[317] 1
x[318] 1
x[319] 1
x[320] 1
x[321] 1
x[322] 0
x[323] 1
x[324] 0
x[325] 1
x[326] 0
x[327] 0
x[328] 1
x[329] 1
x[330] 0
x[331] 1
x[332] 1
x[333] 0
x[334] 0
x[335] 0
x[336] 1
x[337] 0
x[338] 0
x[339] 1
x[340] 0
x[341] 0
x[342] 0
x[343] 1
x[344] 1
x[345] 1
x[346] 1
x[347] 1
x[348] 1
x[349] 1
x[350] 0
x[351] 0
x[352] 1
x[353] 1
x[354] 1
x[355] 1
x[356] 1
x[357] 1
x[358] 0
x[359] 1
x[360] 0
x[361] 0
x[362] 1
x[363] 0
x[364] 0
x[365] 0
x[366] 0
x[367] 1
x[368] 0
x[369] 0
x[370] 1
x[371] 0
x[372] 0
x[373] 1
x[374] 1
x[375] 0
x[376] 1
x[377] 1
x[378] 0
x[379] 1
x[380] 1
x[381] 0
x[382] 0
x[383] 0
x[384] 1
x[385] 0
x[386] 0
x[387] 0
x[388] 0
x[389] 1
x[390] 0
x[391] 1
x[392] 1
x[393] 1
x[394] 1
x[395] 0
x[396] 1
x[397] 0
x[398] 1
x[399] 0
x[400] 0
x[401] 0
x[402] 0
x[403] 1
x[404] 0
x[405] 0
x[406] 0
x[407] 0
x[408] 0
x[409] 0
x[410] 0
x[411] 0
x[412] 0
x[413] 1
x[414] 1
x[415] 1
x[416] 0
x[417] 1
x[418] 0
x[419] 1
x[420] 1
x[421] 0
x[422] 0
x[423] 1
x[424] 0
x[425] 1
x[426] 0
x[427] 1
x[428] 1
x[429] 1
x[430] 0
x[431] 1
x[432] 1
x[433] 1
x[434] 1
x[435] 1
x[436] 0
x[437] 1
x[438] 0
x[439] 0
x[440] 1
x[441] 0
x[442] 0
x[443] 1
x[444] 1
x[445] 1
x[446] 0
x[447] 0
x[448] 1
x[449] 1
x[450] 1
x[451] 1
x[452] 0
x[453] 1
x[454] 0
x[455] 1
x[456] 1
x[457] 0
x[458] 0
x[459] 1
x[460] 1
x[461] 1
x[462] 0
x[463] 0
x[464] 0
x[465] 0
x[466] 1
x[467] 1
x[468] 0
x[469] 0
x[470] 1
x[471] 1
x[472] 0
x[473] 0
x[474] 1
x[475] 0
x[476] 0
x[477] 1
x[478] 0
x[479] 1
x[480] 0
x[481] 0
x[482] 1
x[483] 0
x[484] 1
x[485] 0
x[486] 0
x[487] 1
x[488] 0
x[489] 1
x[490] 1
x[491] 1
x[492] 1
x[493] 1
x[494] 0
x[495] 0
x[496] 0
x[497] 0
x[498] 0
x[499] 0
x[500] 0
x[501] 0
x[502] 1
x[503] 1
x[504] 1
x[505] 1
x[506] 1
x[507] 1
x[508] 1
x[509] 1
x[510] 1
x[511] 1
x[512] 0
x[513] 0
x[514] 0
x[515] 0
x[516] 1
x[517] 0
x[518] 0
x[519] 1
x[520] 1
x[521] 1
x[522] 0
x[523] 1
x[524] 0
x[525] 1
x[526] 0
x[527] 0
x[528] 0
x[529] 0
x[530] 0
x[531] 1
x[532] 1
x[533] 1
x[534] 1
x[535] 0
x[536] 0
x[537] 0
x[538] 1
x[539] 1
x[540] 1
x[541] 1
x[542] 1
x[543] 1
x[544] 0
x[545] 0
x[546] 0
x[547] 0
x[548] 0
x[549] 1
x[550] 1
x[551] 1
x[552] 1
x[553] 0
x[554] 0
x[555] 0
x[556] 0
x[557] 1
x[558] 0
x[559] 0
x[560] 0
x[561] 0
x[562] 0
x[563] 0
x[564] 1
x[565] 1
x[566] 1
x[567] 0
x[568] 1
x[569] 0
x[570] 1
x[571] 1
x[572] 0
x[573] 0
x[574] 1
x[575] 0
x[576] 1
x[577] 0
x[578] 1
x[579] 0
x[580] 1
x[581] 0
x[582] 1
x[583] 0
x[584] 1
x[585] 0
x[586] 0
x[587] 0
x[588] 0
x[589] 0
x[590] 0
x[591] 0
x[592] 1
x[593] 0
x[594] 0
x[595] 1
x[596] 1
x[597] 1
x[598] 0
x[599] 1
x[600] 0
x[601] 1
x[602] 1
x[603] 1
x[604] 0
x[605] 1
x[606] 0
x[607] 1
x[608] 0
x[609] 1
x[610] 1
x[611] 0
x[612] 0
x[613] 1
x[614] 1
x[615] 1
x[616] 0
x[617] 0
x[618] 1
x[619] 0
x[620] 0
x[621] 0
x[622] 1
x[623] 1
x[624] 0
x[625] 1
x[626] 0
x[627] 0
x[628] 0
x[629] 1
x[630] 0
x[631] 0
x[632] 1
x[633] 0
x[634] 1
x[635] 1
x[636] 1
x[637] 1
x[638] 0
x[639] 1
x[640] 0
x[641] 0
x[642] 1
x[643] 1
x[644] 0
x[645] 1
x[646] 0
x[647] 1
x[648] 0
x[649] 0
x[650] 0
x[651] 0
x[652] 0
x[653] 0
x[654] 1
x[655] 1
x[656] 1
x[657] 1
x[658] 1
x[659] 1
x[660] 1
x[661] 0
x[662] 0
x[663] 0
x[664] 0
x[665] 1
x[666] 1
x[667] 0
x[668] 1
x[669] 1
x[670] 0
x[671] 1
x[672] 0
x[673] 0
x[674] 1
x[675] 1
x[676] 1
x[677] 0
x[678] 0
x[679] 1
x[680] 0
x[681] 0
x[682] 0
x[683] 1
x[684] 1
x[685] 0
x[686] 0
x[687] 0
x[688] 0
x[689] 1
x[690] 0
x[691] 1
x[692] 1
x[693] 1
x[694] 0
x[695] 0
x[696] 1
x[697] 0
x[698] 0
x[699] 1
x[700] 0
x[701] 0
x[702] 1
x[703] 1
x[704] 1
x[705] 1
x[706] 1
x[707] 0
x[708] 1
x[709] 1
x[710] 1
x[711] 1
x[712] 1
x[713] 0
x[714] 0
x[715] 0
x[716] 0
x[717] 0
x[718] 1
x[719] 1
x[720] 1
x[721] 1
x[722] 1
x[723] 1
x[724] 0
x[725] 0
x[726] 0
x[727] 1
x[728] 1
x[729] 0
x[730] 1
x[731] 1
x[732] 1
x[733] 1
x[734] 0
x[735] 0
x[736] 0
x[737] 0
x[738] 0
x[739] 0
x[740] 0
x[741] 1
x[742] 0
x[743] 1
x[744] 1
x[745] 1
x[746] 0
x[747] 1
x[748] 0
x[749] 0
x[750] 0
x[751] 1
x[752] 0
x[753] 1
x[754] 1
x[755] 1
x[756] 1
x[757] 1
x[758] 0
x[759] 1
x[760] 0
x[761] 0
x[762] 1
x[763] 0
x[764] 0
x[765] 0
x[766] 1
x[767] 0
x[768] 0
x[769] 0
x[770] 1
x[771] 1
x[772] 0
x[773] 1
x[774] 1
x[775] 1
x[776] 0
x[777] 0
x[778] 1
x[779] 1
x[780] 0
x[781] 0
x[782] 0
x[783] 1
x[784] 0
x[785] 0
x[786] 0
x[787] 1
x[788] 0
x[789] 1
x[790] 1
x[791] 1
x[792] 0
x[793] 1
x[794] 0
x[795] 0
x[796] 0
x[797] 0
x[798] 1
x[799] 1
x[800] 0
x[801] 0
x[802] 1
x[803] 1
x[804] 1
x[805] 0
x[806] 1
x[807] 0
x[808] 0
x[809] 1
x[810] 0
x[811] 0
x[812] 1
x[813] 0
x[814] 1
x[815] 1
x[816] 0
x[817] 0
x[818] 1
x[819] 0
x[820] 0
x[821] 1
x[822] 0
x[823] 1
x[824] 1
x[825] 0
x[826] 0
x[827] 1
x[828] 0
x[829] 0
x[830] 1
x[831] 1
x[832] 0
x[833] 0
x[834] 0
x[835] 1
x[836] 0
x[837] 0
x[838] 1
x[839] 1
x[840] 0
x[841] 1
x[842] 1
x[843] 1
x[844] 0
x[845] 0
x[846] 0
x[847] 1
x[848] 1
x[849] 0
x[850] 0
x[851] 1
x[852] 0
x[853] 1
x[854] 1
x[855] 0
x[856] 1
x[857] 1
x[858] 0
x[859] 0
x[860] 0
x[861] 1
x[862] 1
x[863] 1
x[864] 0
x[865] 0
x[866] 1
x[867] 1
x[868] 0
x[869] 0
x[870] 0
x[871] 1
x[872] 0
x[873] 0
x[874] 0
x[875] 1
x[876] 0
x[877] 1
x[878] 0
x[879] 0
x[880] 1
x[881] 1
x[882] 1
x[883] 1
x[884] 1
x[885] 0
x[886] 1
x[887] 0
x[888] 0
x[889] 0
x[890] 0
x[891] 1
x[892] 0
x[893] 0
x[894] 1
x[895] 0
x[896] 0
x[897] 0
x[898] 0
x[899] 1
x[900] 0
x[901] 0
x[902] 1
x[903] 1
x[904] 1
x[905] 1
x[906] 0
x[907] 1
x[908] 1
x[909] 0
x[910] 0
x[911] 0
x[912] 1
x[913] 1
x[914] 1
x[915] 1
x[916] 1
x[917] 1
x[918] 1
x[919] 0
x[920] 0
x[921] 1
x[922] 0
x[923] 0
x[924] 0
x[925] 0
x[926] 1
x[927] 1
x[928] 0
x[929] 1
x[930] 0
x[931] 1
x[932] 0
x[933] 0
x[934] 1
x[935] 0
x[936] 1
x[937] 1
x[938] 1
x[939] 1
x[940] 0
x[941] 0
x[942] 0
x[943] 1
x[944] 1
x[945] 1
x[946] 0
x[947] 0
x[948] 1
x[949] 0
x[950] 0
x[951] 0
x[952] 1
x[953] 1
x[954] 1
x[955] 0
x[956] 0
x[957] 1
x[958] 0
x[959] 0
x[960] 0
x[961] 0
x[962] 1
x[963] 1
x[964] 0
x[965] 1
x[966] 0
x[967] 0
x[968] 1
x[969] 0
x[970] 1
x[971] 1
x[972] 1
x[973] 0
x[974] 1
x[975] 0
x[976] 0
x[977] 0
x[978] 0
x[979] 1
x[980] 0
x[981] 1
x[982] 0
x[983] 0
x[984] 0
x[985] 1
x[986] 1
x[987] 1
x[988] 0
x[989] 0
x[990] 0
x[991] 1
x[992] 0
x[993] 1
x[994] 1
x[995] 0
x[996] 1
x[997] 0
x[998] 1
x[999] 1
